
Value of objective function: 1.68933333

Actual values of the variables:
score                     1.68933
x_0_t_1                       0.5
x_1_t_1                       0.5
x_0_t_0                         0
x_0_t_2                       0.5
x_0_t_3                       0.5
x_0_t_4                  0.810667
x_0_t_5                  0.810667
x_0_t_6                  0.810667
x_0_t_7                  0.810667
x_0_t_8                  0.810667
x_0_t_9                  0.810667
x_0_t_10                 0.810667
x_0_t_11                 0.810667
x_0_t_12                 0.810667
x_0_t_13                 0.810667
x_0_t_14                 0.810667
x_0_t_15                 0.810667
x_0_t_16                 0.810667
x_0_t_17                 0.810667
x_0_t_18                 0.810667
x_0_t_19                 0.810667
x_0_t_20                 0.810667
x_0_t_21                 0.810667
x_1_t_0                         0
x_1_t_2                  0.810667
x_1_t_3                  0.810667
x_1_t_4                  0.810667
x_1_t_5                  0.810667
x_1_t_6                  0.810667
x_1_t_7                  0.810667
x_1_t_8                  0.810667
x_1_t_9                  0.810667
x_1_t_10                 0.810667
x_1_t_11                 0.810667
x_1_t_12                 0.810667
x_1_t_13                 0.810667
x_1_t_14                 0.810667
x_1_t_15                 0.810667
x_1_t_16                 0.810667
x_1_t_17                 0.810667
x_1_t_18                 0.810667
x_1_t_19                 0.810667
x_1_t_20                 0.810667
x_1_t_21                        1
x_10_t_0                        0
x_10_t_1                        0
x_10_t_2                        0
x_10_t_3                        0
x_10_t_4                        0
x_10_t_5                        0
x_10_t_6                        0
x_10_t_7                6.508e-12
x_10_t_8                        0
x_10_t_9                        0
x_10_t_10                0.327111
x_10_t_11                0.728889
x_10_t_12                0.728889
x_10_t_13                0.728889
x_10_t_14                0.728889
x_10_t_15                0.728889
x_10_t_16                0.728889
x_10_t_17                0.728889
x_10_t_18                0.728889
x_10_t_19                0.728889
x_10_t_20                0.728889
x_10_t_21                0.728889
x_11_t_0                        0
x_11_t_1                        0
x_11_t_2                        0
x_11_t_3                        0
x_11_t_4                        0
x_11_t_5                        0
x_11_t_6                        0
x_11_t_7                        0
x_11_t_8                        0
x_11_t_9                        0
x_11_t_10                       0
x_11_t_11                0.271111
x_11_t_12                0.271111
x_11_t_13                   0.472
x_11_t_14                0.689333
x_11_t_15                0.689333
x_11_t_16                0.689333
x_11_t_17                0.689333
x_11_t_18                0.689333
x_11_t_19                0.689333
x_11_t_20                0.689333
x_11_t_21                       1
x_12_t_0                        0
x_12_t_1                        0
x_12_t_2                        0
x_12_t_3                        0
x_12_t_4                        0
x_12_t_5                        0
x_12_t_6                        0
x_12_t_7                        0
x_12_t_8                        0
x_12_t_9                        0
x_12_t_10                       0
x_12_t_11                       0
x_12_t_12                0.287556
x_12_t_13                   0.776
x_12_t_14                   0.776
x_12_t_15                   0.776
x_12_t_16                   0.776
x_12_t_17                   0.776
x_12_t_18                   0.776
x_12_t_19                   0.776
x_12_t_20                   0.776
x_12_t_21                       1
x_13_t_0                        0
x_13_t_1                        0
x_13_t_2                        0
x_13_t_3                        0
x_13_t_4                        0
x_13_t_5                        0
x_13_t_6                        0
x_13_t_7                        0
x_13_t_8                        0
x_13_t_9                        0
x_13_t_10                       0
x_13_t_11                       0
x_13_t_12                       0
x_13_t_13                   0.224
x_13_t_14                   0.224
x_13_t_15                   0.224
x_13_t_16                   0.528
x_13_t_17                   0.528
x_13_t_18                   0.528
x_13_t_19                   0.528
x_13_t_20                   0.528
x_13_t_21                       1
x_14_t_0                        0
x_14_t_1                        0
x_14_t_2                        0
x_14_t_3                        0
x_14_t_4                        0
x_14_t_5                        0
x_14_t_6                        0
x_14_t_7                        0
x_14_t_8                        0
x_14_t_9                        0
x_14_t_10                       0
x_14_t_11                       0
x_14_t_12                       0
x_14_t_13                       0
x_14_t_14                0.310667
x_14_t_15                       1
x_14_t_16                       1
x_14_t_17                       1
x_14_t_18                       1
x_14_t_19                       1
x_14_t_20                       1
x_14_t_21                       1
x_15_t_0                        0
x_15_t_1                        0
x_15_t_2                        0
x_15_t_3                        0
x_15_t_4                        0
x_15_t_5                        0
x_15_t_6                        0
x_15_t_7                        0
x_15_t_8                        0
x_15_t_9                        0
x_15_t_10                       0
x_15_t_11                       0
x_15_t_12                       0
x_15_t_13                       0
x_15_t_14                       0
x_15_t_15                       0
x_15_t_16                       0
x_15_t_17                       0
x_15_t_18                0.677333
x_15_t_19                0.677333
x_15_t_20                0.677333
x_15_t_21                       1
x_16_t_0                        0
x_16_t_1                        0
x_16_t_2                        0
x_16_t_3                        0
x_16_t_4                        0
x_16_t_5                        0
x_16_t_6                        0
x_16_t_7                        0
x_16_t_8                        0
x_16_t_9                        0
x_16_t_10                       0
x_16_t_11                       0
x_16_t_12                       0
x_16_t_13                       0
x_16_t_14                       0
x_16_t_15                       0
x_16_t_16                   0.472
x_16_t_17                0.937333
x_16_t_18                0.937333
x_16_t_19                0.937333
x_16_t_20                0.937333
x_16_t_21                       1
x_17_t_0                        0
x_17_t_1                        0
x_17_t_2                        0
x_17_t_3                        0
x_17_t_4                        0
x_17_t_5                        0
x_17_t_6                        0
x_17_t_7                        0
x_17_t_8                        0
x_17_t_9                        0
x_17_t_10                       0
x_17_t_11                       0
x_17_t_12                       0
x_17_t_13                       0
x_17_t_14                       0
x_17_t_15                       0
x_17_t_16                       0
x_17_t_17               0.0626667
x_17_t_18               0.0626667
x_17_t_19               0.0746667
x_17_t_20                   0.764
x_17_t_21                       1
x_18_t_0                        0
x_18_t_1                        0
x_18_t_2                        0
x_18_t_3                        0
x_18_t_4                        0
x_18_t_5                        0
x_18_t_6                        0
x_18_t_7                        0
x_18_t_8                        0
x_18_t_9                        0
x_18_t_10                       0
x_18_t_11                       0
x_18_t_12                       0
x_18_t_13                       0
x_18_t_14                       0
x_18_t_15                       0
x_18_t_16                       0
x_18_t_17                   0.224
x_18_t_18                0.322667
x_18_t_19                       1
x_18_t_20                       1
x_18_t_21                       1
x_19_t_0                        0
x_19_t_1                        0
x_19_t_2                        0
x_19_t_3                        0
x_19_t_4                        0
x_19_t_5                        0
x_19_t_6                        0
x_19_t_7                        0
x_19_t_8                        0
x_19_t_9                        0
x_19_t_10                       0
x_19_t_11                       0
x_19_t_12                       0
x_19_t_13                       0
x_19_t_14                       0
x_19_t_15                       0
x_19_t_16                       0
x_19_t_17                       0
x_19_t_18                       0
x_19_t_19                       0
x_19_t_20                       0
x_19_t_21                       0
x_2_t_0                         0
x_2_t_1                         0
x_2_t_2                  0.189333
x_2_t_3                  0.621333
x_2_t_4                  0.621333
x_2_t_5                  0.621333
x_2_t_6                  0.621333
x_2_t_7                  0.621333
x_2_t_8                  0.621333
x_2_t_9                  0.621333
x_2_t_10                 0.621333
x_2_t_11                 0.621333
x_2_t_12                 0.621333
x_2_t_13                 0.621333
x_2_t_14                 0.621333
x_2_t_15                 0.621333
x_2_t_16                 0.621333
x_2_t_17                 0.621333
x_2_t_18                 0.621333
x_2_t_19                 0.621333
x_2_t_20                 0.621333
x_2_t_21                 0.621333
x_20_t_0                        0
x_20_t_1                        0
x_20_t_2                        0
x_20_t_3                        0
x_20_t_4                        0
x_20_t_5                        0
x_20_t_6                        0
x_20_t_7                        0
x_20_t_8                        0
x_20_t_9                        0
x_20_t_10                       0
x_20_t_11                       0
x_20_t_12                       0
x_20_t_13                       0
x_20_t_14                       0
x_20_t_15                       0
x_20_t_16                       0
x_20_t_17                       0
x_20_t_18                       0
x_20_t_19                       0
x_20_t_20                   0.236
x_20_t_21                       1
x_3_t_0                         0
x_3_t_1                         0
x_3_t_2                         0
x_3_t_3                  0.378667
x_3_t_4                  0.378667
x_3_t_5                  0.378667
x_3_t_6                     0.864
x_3_t_7                     0.864
x_3_t_8                     0.864
x_3_t_9                     0.864
x_3_t_10                    0.864
x_3_t_11                    0.864
x_3_t_12                    0.864
x_3_t_13                    0.864
x_3_t_14                    0.864
x_3_t_15                    0.864
x_3_t_16                    0.864
x_3_t_17                    0.864
x_3_t_18                    0.864
x_3_t_19                    0.864
x_3_t_20                    0.864
x_3_t_21                        1
x_4_t_0                         0
x_4_t_1                         0
x_4_t_2                         0
x_4_t_3                         0
x_4_t_4                  0.189333
x_4_t_5                       0.5
x_4_t_6                       0.5
x_4_t_7                       0.5
x_4_t_8                       0.5
x_4_t_9                       0.5
x_4_t_10                      0.5
x_4_t_11                      0.5
x_4_t_12                      0.5
x_4_t_13                      0.5
x_4_t_14                      0.5
x_4_t_15                      0.5
x_4_t_16                      0.5
x_4_t_17                      0.5
x_4_t_18                      0.5
x_4_t_19                      0.5
x_4_t_20                      0.5
x_4_t_21                      0.5
x_5_t_0                         0
x_5_t_1                         0
x_5_t_2                         0
x_5_t_3                         0
x_5_t_4                         0
x_5_t_5                       0.5
x_5_t_6                       0.5
x_5_t_7                       0.5
x_5_t_8                  0.959556
x_5_t_9                  0.959556
x_5_t_10                 0.959556
x_5_t_11                 0.959556
x_5_t_12                 0.959556
x_5_t_13                 0.959556
x_5_t_14                 0.959556
x_5_t_15                 0.959556
x_5_t_16                 0.959556
x_5_t_17                 0.959556
x_5_t_18                 0.959556
x_5_t_19                 0.959556
x_5_t_20                 0.959556
x_5_t_21                        1
x_6_t_0                         0
x_6_t_1                         0
x_6_t_2                         0
x_6_t_3                         0
x_6_t_4                         0
x_6_t_5                         0
x_6_t_6                     0.136
x_6_t_7                  0.457778
x_6_t_8                  0.457778
x_6_t_9                  0.457778
x_6_t_10                 0.457778
x_6_t_11                 0.457778
x_6_t_12                 0.457778
x_6_t_13                 0.457778
x_6_t_14                 0.457778
x_6_t_15                 0.457778
x_6_t_16                 0.457778
x_6_t_17                 0.457778
x_6_t_18                 0.457778
x_6_t_19                 0.457778
x_6_t_20                 0.457778
x_6_t_21                 0.457778
x_7_t_0                         0
x_7_t_1                         0
x_7_t_2                         0
x_7_t_3                         0
x_7_t_4                         0
x_7_t_5                         0
x_7_t_6                         0
x_7_t_7                  0.542222
x_7_t_8                  0.542222
x_7_t_9                  0.542222
x_7_t_10                 0.672889
x_7_t_11                 0.672889
x_7_t_12                 0.672889
x_7_t_13                 0.672889
x_7_t_14                 0.672889
x_7_t_15                 0.672889
x_7_t_16                 0.672889
x_7_t_17                 0.672889
x_7_t_18                 0.672889
x_7_t_19                 0.672889
x_7_t_20                 0.672889
x_7_t_21                        1
x_8_t_0                         0
x_8_t_1                         0
x_8_t_2                         0
x_8_t_3                         0
x_8_t_4                         0
x_8_t_5                         0
x_8_t_6                         0
x_8_t_7                 0.0404444
x_8_t_8                 0.0404444
x_8_t_9                  0.729778
x_8_t_10                 0.729778
x_8_t_11                 0.729778
x_8_t_12                 0.729778
x_8_t_13                 0.729778
x_8_t_14                 0.729778
x_8_t_15                 0.729778
x_8_t_16                 0.729778
x_8_t_17                 0.729778
x_8_t_18                 0.729778
x_8_t_19                 0.729778
x_8_t_20                 0.729778
x_8_t_21                        1
x_9_t_0                         0
x_9_t_1                         0
x_9_t_2                         0
x_9_t_3                         0
x_9_t_4                         0
x_9_t_5                         0
x_9_t_6                         0
x_9_t_7                         0
x_9_t_8                         0
x_9_t_9                  0.270222
x_9_t_10                 0.270222
x_9_t_11                 0.557778
x_9_t_12                 0.712444
x_9_t_13                 0.712444
x_9_t_14                 0.712444
x_9_t_15                 0.712444
x_9_t_16                 0.712444
x_9_t_17                 0.712444
x_9_t_18                 0.712444
x_9_t_19                 0.712444
x_9_t_20                 0.712444
x_9_t_21                        1
